WARNING: for repeatability, setting FPU to use double precision
============================[ Problem Statistics ]=============================
|                                                                             |
|  Number of variables:          4351                                         |
|  Number of clauses:           61011                                         |
|  Parse time:                   0.02 s                                       |
|  Eliminated clauses:           0.00 Mb                                      |
|  Simplification time:          0.02 s                                       |
|                                                                             |
============================[ Search Statistics ]==============================
| Conflicts |          ORIGINAL         |          LEARNT          | Progress |
|           |    Vars  Clauses Literals |    Limit  Clauses Lit/Cl |          |
===============================================================================
===============================================================================
restarts              : 1
conflicts             : 2              (63 /sec)
decisions             : 95             (0.00 % random) (2975 /sec)
propagations          : 4240           (132766 /sec)
conflict literals     : 84             (0.00 % deleted)
Memory used           : 25.00 MB
CPU time              : 0.031936 s

SATISFIABLE
